
se = 80; % nombre de sessions
gr = 40; % nombre de grups de treball
cl = 12; % nombre de slots
minPapersPerSlot = 3; % minim nombre d'articles per sessio i slot
maxSesionsPar = 20; % maxim nombre de sessions paraleles

npMax = [6, 5, 3, 5, 4, 6, 4, 3, 6, 3, 4, 5]; % nombre maxim de papers per slot

np = [17, 3, 15, 3, 18, 9, 5, 11, 10, 10, 15, 10, 3, 3, 13, 15, 9, 3, 3, 14, 9, 18, 17, 10, 6, 14, 6, 5, 14, 6, 15, 18, 5, 4, 17, 18, 10, 6, 4, 9, 9, 6, 12, 11, 4, 15, 6, 16, 5, 4, 3, 12, 9, 5, 14, 11, 3, 4, 3, 16, 20, 18, 10, 3, 7, 3, 3, 11, 8, 14, 3, 16, 18, 3, 9, 8, 7, 4, 9, 14]; % nombre de papers acceptats a cada sessio

WG = [ {1,2,3}, {4}, {5,6,7}, {8}, {9}, {10}, {11}, {}, {12}, {13}, {14}, {15}, {16}, {17,18,19}, {}, {20}, {21}, {}, {}, {}, {22,23,24}, {25}, {26,27,28}, {}, {29}, {30}, {}, {}, {31}, {}, {32}, {33,34}, {35}, {36,37}, {38,39,40}, {1}, {2}, {3}, {4}, {5}, {6}, {}, {}, {7}, {}, {8,9}, {10,11}, {12}, {13}, {}, {14}, {15,16,17}, {18}, {}, {19}, {20,21}, {}, {}, {22}, {23}, {}, {}, {24}, {}, {25}, {26}, {27}, {28}, {29}, {30}, {}, {31,32,33}, {34}, {35}, {36}, {37,38,39}, {40}, {1}, {2,3,4}, {5} ]; % grups per sessio

